Maximize

x_0_0 + x_0_1 + x_1_0 + x_1_1 + x_2_0 + x_2_1 + x_3_0 + x_3_1 + x_4_0 + x_4_1 + x_5_0 + x_5_1 + x_6_0 + x_6_1 + x_7_0 + x_7_1 + x_8_0 + x_8_1 + x_9_0 + x_9_1 + x_10_0 + x_10_1 + x_11_0 + x_11_1 + x_12_0 + x_12_1 + x_13_0 + x_13_1 + x_14_0 + x_14_1


Subject To

a0: 20.0 <= 15.0
a1: 20.0 <= 20.0
a2: 19.0 <= 15.0
a3: 19.0 <= 20.0
a4: 18.0 <= 15.0
a5: 18.0 <= 20.0
a6: 17.0 <= 15.0
a7: 17.0 <= 20.0
a8: 16.0 <= 15.0
a9: 16.0 <= 20.0
a10: 15.0 <= 15.0
a11: 15.0 <= 20.0
a12: 14.0 <= 15.0
a13: 14.0 <= 20.0
a14: 13.0 <= 15.0
a15: 13.0 <= 20.0
a16: 12.0 <= 15.0
a17: 12.0 <= 20.0
a18: 11.0 <= 15.0
a19: 11.0 <= 20.0
a20: 10.0 <= 15.0
a21: 10.0 <= 20.0
a22: 9.0 <= 15.0
a23: 9.0 <= 20.0
a24: 8.0 <= 15.0
a25: 8.0 <= 20.0
a26: 7.0 <= 15.0
a27: 7.0 <= 20.0
a28: 6.0 <= 15.0
a29: 6.0 <= 20.0
b0: x_0_0 + x_0_1 <= 1
b1: x_1_0 + x_1_1 <= 1
b2: x_2_0 + x_2_1 <= 1
b3: x_3_0 + x_3_1 <= 1
b4: x_4_0 + x_4_1 <= 1
b5: x_5_0 + x_5_1 <= 1
b6: x_6_0 + x_6_1 <= 1
b7: x_7_0 + x_7_1 <= 1
b8: x_8_0 + x_8_1 <= 1
b9: x_9_0 + x_9_1 <= 1
b10: x_10_0 + x_10_1 <= 1
b11: x_11_0 + x_11_1 <= 1
b12: x_12_0 + x_12_1 <= 1
b13: x_13_0 + x_13_1 <= 1
b14: x_14_0 + x_14_1 <= 1
c0: 20.0 x_0_0 + 19.0 x_1_0 + 18.0 x_2_0 + 17.0 x_3_0 + 16.0 x_4_0 + 15.0 x_5_0 + 14.0 x_6_0 + 13.0 x_7_0 + 12.0 x_8_0 + 11.0 x_9_0 + 10.0 x_10_0 + 9.0 x_11_0 + 8.0 x_12_0 + 7.0 x_13_0 + 6.0 x_14_0 <= 80.0
c1: 20.0 x_0_1 + 19.0 x_1_1 + 18.0 x_2_1 + 17.0 x_3_1 + 16.0 x_4_1 + 15.0 x_5_1 + 14.0 x_6_1 + 13.0 x_7_1 + 12.0 x_8_1 + 11.0 x_9_1 + 10.0 x_10_1 + 9.0 x_11_1 + 8.0 x_12_1 + 7.0 x_13_1 + 6.0 x_14_1 <= 60.0




Binary

x_0_0 x_0_1 x_1_0 x_1_1 x_2_0 x_2_1 x_3_0 x_3_1 x_4_0 x_4_1 x_5_0 x_5_1 x_6_0 x_6_1 x_7_0 x_7_1 x_8_0 x_8_1 x_9_0 x_9_1 x_10_0 x_10_1 x_11_0 x_11_1 x_12_0 x_12_1 x_13_0 x_13_1 x_14_0 x_14_1

 


End
